
Gurobi 9.1.2 (win64, Java) logging started Tue Nov  9 15:37:57 2021

Academic license - for non-commercial use only - expires 2022-10-30
Gurobi Optimizer version 9.1.2 build v9.1.2rc0 (win64)
Thread count: 6 physical cores, 12 logical processors, using up to 12 threads
Optimize a model with 450 rows, 45000 columns and 90000 nonzeros
Model fingerprint: 0x4f58162d
Variable types: 0 continuous, 45000 integer (45000 binary)
Coefficient statistics:
  Matrix range     [1e+00, 1e+03]
  Objective range  [2e+00, 1e+03]
  Bounds range     [1e+00, 1e+00]
  RHS range        [1e+00, 1e+03]
Found heuristic solution: objective 89596.000000
Presolve removed 122 rows and 23090 columns
Presolve time: 0.66s
Presolved: 328 rows, 21910 columns, 43818 nonzeros
Found heuristic solution: objective 90131.000000
Variable types: 0 continuous, 21910 integer (21910 binary)
Presolved: 328 rows, 21910 columns, 43818 nonzeros


Root relaxation: objective 9.122082e+04, 337 iterations, 0.02 seconds

    Nodes    |    Current Node    |     Objective Bounds      |     Work
 Expl Unexpl |  Obj  Depth IntInf | Incumbent    BestBd   Gap | It/Node Time

     0     0 91220.8155    0    1 90131.0000 91220.8155  1.21%     -    0s
H    0     0                    90527.000000 91220.8155  0.77%     -    0s
H    0     0                    90534.000000 91220.8155  0.76%     -    0s

Cutting planes:
  Cover: 1

Explored 1 nodes (3872 simplex iterations) in 0.91 seconds
Thread count was 12 (of 12 available processors)

Solution count 4: 90534 90527 90131 89596 

Optimal solution found (tolerance 1.00e-04)
Best objective 9.053400000000e+04, best bound 9.053400000000e+04, gap 0.0000%
